c 
c G(k,n,p) graph
c graph gen seed     : 4582
c number of vertices : 20
c max number of edges: 400
c number of classes  : 2
c edge density       : 0.800000
c edge probability   : 1.600000
c data structure     : dense
c
c           Graph Stats
c number of vertices  : 20
c nonisolated vertices: 20
c number of edges     : 99
c edge density        : 0.521053
c max degree          : 11
c avg degree          : 9.90
c min degree          : 9
p col 20 99
e 1 4
e 1 6
e 1 7
e 1 9
e 1 14
e 1 15
e 1 18
e 1 19
e 1 20
e 2 4
e 2 6
e 2 7
e 2 9
e 2 14
e 2 15
e 2 18
e 2 19
e 2 20
e 3 4
e 3 6
e 3 7
e 3 9
e 3 14
e 3 15
e 3 18
e 3 19
e 3 20
e 4 5
e 4 8
e 4 10
e 4 11
e 4 12
e 4 13
e 4 16
e 4 17
e 5 6
e 5 7
e 5 9
e 5 14
e 5 15
e 5 18
e 5 19
e 5 20
e 6 8
e 6 10
e 6 11
e 6 12
e 6 13
e 6 16
e 6 17
e 7 8
e 7 10
e 7 11
e 7 12
e 7 13
e 7 16
e 7 17
e 8 9
e 8 14
e 8 15
e 8 18
e 8 19
e 8 20
e 9 10
e 9 11
e 9 12
e 9 13
e 9 16
e 9 17
e 10 14
e 10 15
e 10 18
e 10 19
e 10 20
e 11 14
e 11 15
e 11 18
e 11 19
e 11 20
e 12 14
e 12 15
e 12 18
e 12 19
e 12 20
e 13 14
e 13 15
e 13 18
e 13 19
e 13 20
e 14 16
e 14 17
e 15 16
e 15 17
e 16 18
e 16 19
e 16 20
e 17 18
e 17 19
e 17 20
